formal_verification/runs/model_eval_v7_100/case_045/run/model/design_smt2.smt2
; SMT-LIBv2 description generated by Yosys 0.64+40 (git sha1 90b906c4f, clang++ 18.1.8 -fPIC -O3)
; yosys-smt2-module vert_formal_wrap
(declare-sort |vert_formal_wrap_s| 0)
(declare-fun |vert_formal_wrap_is| (|vert_formal_wrap_s|) Bool)
; yosys-smt2-wire b0011x1 32
(define-fun |vert_formal_wrap_n b0011x1| ((state |vert_formal_wrap_s|)) (_ BitVec 32) #b00000000000000000000000000000000)
; yosys-smt2-wire bxx0100x 32
(define-fun |vert_formal_wrap_n bxx0100x| ((state |vert_formal_wrap_s|)) (_ BitVec 32) #b00000000000000000000000000000000)
; yosys-smt2-wire bxx0xx1x 32
(define-fun |vert_formal_wrap_n bxx0xx1x| ((state |vert_formal_wrap_s|)) (_ BitVec 32) #b00000000000000000000000000000000)
; yosys-smt2-wire err_6 32
(define-fun |vert_formal_wrap_n err_6| ((state |vert_formal_wrap_s|)) (_ BitVec 32) #b00000000000000000000000000000000)
; yosys-smt2-wire fsm_3 32
(define-fun |vert_formal_wrap_n fsm_3| ((state |vert_formal_wrap_s|)) (_ BitVec 32) #b00000000000000000000000000000000)
; yosys-smt2-wire h37 32
(define-fun |vert_formal_wrap_n h37| ((state |vert_formal_wrap_s|)) (_ BitVec 32) #b00000000000000000000000000000000)
; yosys-smt2-wire h9 32
(define-fun |vert_formal_wrap_n h9| ((state |vert_formal_wrap_s|)) (_ BitVec 32) #b00000000000000000000000000000000)
; yosys-smt2-wire interrupt_request_3 32
(define-fun |vert_formal_wrap_n interrupt_request_3| ((state |vert_formal_wrap_s|)) (_ BitVec 32) #b00000000000000000000000000000000)
; yosys-smt2-wire reg_13 32
(define-fun |vert_formal_wrap_n reg_13| ((state |vert_formal_wrap_s|)) (_ BitVec 32) #b00000000000000000000000000000000)
; yosys-smt2-wire rst 1
(define-fun |vert_formal_wrap_n rst| ((state |vert_formal_wrap_s|)) Bool false)
; yosys-smt2-wire rst_6 32
(define-fun |vert_formal_wrap_n rst_6| ((state |vert_formal_wrap_s|)) (_ BitVec 32) #b00000000000000000000000000000000)
; yosys-smt2-wire rx_20 32
(define-fun |vert_formal_wrap_n rx_20| ((state |vert_formal_wrap_s|)) (_ BitVec 32) #b00000000000000000000000000000000)
; yosys-smt2-wire tx_12 32
(define-fun |vert_formal_wrap_n tx_12| ((state |vert_formal_wrap_s|)) (_ BitVec 32) #b00000000000000000000000000000000)
; yosys-smt2-assert 0 _witness_.check_assert_vert_formal_wrap_sv_66_4 vert_formal_wrap.sv:66.5-66.75
(define-fun |vert_formal_wrap_a 0| ((state |vert_formal_wrap_s|)) Bool (or true (not true))) ; _witness_.check_assert_vert_formal_wrap_sv_66_4
; yosys-smt2-assert 1 _witness_.check_assert_vert_formal_wrap_sv_67_9 vert_formal_wrap.sv:67.5-67.80
(define-fun |vert_formal_wrap_a 1| ((state |vert_formal_wrap_s|)) Bool (or true (not true))) ; _witness_.check_assert_vert_formal_wrap_sv_67_9
; yosys-smt2-assert 2 _witness_.check_assert_vert_formal_wrap_sv_68_14 vert_formal_wrap.sv:68.5-68.81
(define-fun |vert_formal_wrap_a 2| ((state |vert_formal_wrap_s|)) Bool (or true (not true))) ; _witness_.check_assert_vert_formal_wrap_sv_68_14
; yosys-smt2-assert 3 _witness_.check_assert_vert_formal_wrap_sv_69_19 vert_formal_wrap.sv:69.5-69.75
(define-fun |vert_formal_wrap_a 3| ((state |vert_formal_wrap_s|)) Bool (or true (not true))) ; _witness_.check_assert_vert_formal_wrap_sv_69_19
; yosys-smt2-assert 4 _witness_.check_assert_vert_formal_wrap_sv_70_24 vert_formal_wrap.sv:70.5-70.79
(define-fun |vert_formal_wrap_a 4| ((state |vert_formal_wrap_s|)) Bool (or true (not true))) ; _witness_.check_assert_vert_formal_wrap_sv_70_24
; yosys-smt2-assume 0 _witness_.check_assume_vert_formal_wrap_sv_65_2 vert_formal_wrap.sv:65.5-65.18
(define-fun |vert_formal_wrap_u 0| ((state |vert_formal_wrap_s|)) Bool (or true (not true))) ; _witness_.check_assume_vert_formal_wrap_sv_65_2
(define-fun |vert_formal_wrap_a| ((state |vert_formal_wrap_s|)) Bool (and
  (|vert_formal_wrap_a 0| state)
  (|vert_formal_wrap_a 1| state)
  (|vert_formal_wrap_a 2| state)
  (|vert_formal_wrap_a 3| state)
  (|vert_formal_wrap_a 4| state)
))
(define-fun |vert_formal_wrap_u| ((state |vert_formal_wrap_s|)) Bool 
  (|vert_formal_wrap_u 0| state)
)
(define-fun |vert_formal_wrap_i| ((state |vert_formal_wrap_s|)) Bool true)
(define-fun |vert_formal_wrap_h| ((state |vert_formal_wrap_s|)) Bool true)
(define-fun |vert_formal_wrap_t| ((state |vert_formal_wrap_s|) (next_state |vert_formal_wrap_s|)) Bool true) ; end of module vert_formal_wrap
; yosys-smt2-topmod vert_formal_wrap
; end of yosys output
